language ESSENCE' 1.0
$ Generated from file ../../j30/j3029_10.mm
letting jobs = 32
letting horizon = 46
letting resourcesRenew = 2
letting resourcesNonrenew = 2
letting successors = [[2, 3, 4], [6, 7, 9], [5, 8, 11], [13, 22], [10, 30], [16], [15, 26], [12, 14, 21], [14, 18, 20], [16, 27], [16, 23], [22, 28], [15, 17, 19], [23, 29], [25, 29, 31], [28], [21, 26], [22], [20], [21, 24, 25], [23, 29], [24, 25], [27], [26, 31], [30], [30], [28], [31], [32], [32], [32], []]
letting durations = [[0], [5, 6, 10], [3, 4, 5], [1, 10, 10], [2, 2, 9], [5, 7, 9], [4, 6, 9], [7, 8, 10], [1, 4, 6], [3, 10, 10], [3, 5, 7], [2, 6, 10], [7, 7, 9], [1, 2, 9], [1, 3, 6], [6, 10, 10], [2, 4, 6], [1, 3, 6], [4, 4, 8], [2, 6, 9], [3, 4, 8], [1, 7, 10], [3, 6, 8], [1, 7, 9], [5, 7, 9], [2, 2, 3], [3, 3, 6], [2, 4, 8], [1, 2, 9], [2, 6, 8], [5, 7, 9], [0]]
letting resourceUsage = [[[0, 0, 0, 0]], [[9, 2, 5, 0], [6, 2, 0, 7], [2, 2, 0, 1]], [[6, 3, 5, 0], [6, 3, 4, 0], [3, 2, 4, 0]], [[8, 8, 7, 0], [4, 5, 0, 6], [6, 5, 3, 0]], [[7, 7, 0, 4], [7, 7, 7, 0], [7, 7, 2, 0]], [[5, 7, 0, 6], [4, 6, 0, 4], [2, 5, 0, 4]], [[3, 7, 6, 0], [2, 6, 0, 7], [1, 6, 6, 0]], [[1, 7, 0, 7], [1, 7, 4, 0], [1, 2, 0, 4]], [[7, 8, 6, 0], [5, 8, 0, 7], [2, 7, 0, 5]], [[10, 10, 4, 0], [6, 10, 0, 9], [8, 9, 2, 0]], [[5, 6, 0, 6], [4, 6, 1, 0], [2, 6, 0, 1]], [[10, 7, 0, 8], [8, 4, 9, 0], [7, 1, 0, 7]], [[7, 5, 0, 3], [7, 6, 6, 0], [6, 3, 5, 0]], [[5, 6, 7, 0], [5, 3, 5, 0], [5, 2, 0, 8]], [[9, 9, 3, 0], [7, 9, 2, 0], [4, 7, 1, 0]], [[4, 8, 4, 0], [4, 5, 0, 3], [3, 7, 0, 2]], [[6, 5, 0, 5], [6, 5, 6, 0], [5, 5, 4, 0]], [[7, 9, 6, 0], [5, 9, 4, 0], [2, 7, 0, 3]], [[8, 8, 5, 0], [7, 8, 6, 0], [7, 8, 0, 2]], [[7, 5, 8, 0], [7, 5, 7, 0], [4, 3, 5, 0]], [[3, 8, 0, 8], [2, 6, 7, 0], [2, 4, 0, 5]], [[10, 9, 6, 0], [10, 7, 0, 8], [9, 5, 0, 7]], [[6, 7, 6, 0], [5, 7, 4, 0], [4, 7, 0, 9]], [[7, 10, 0, 2], [6, 8, 10, 0], [5, 7, 8, 0]], [[7, 9, 0, 4], [6, 8, 2, 0], [6, 6, 0, 4]], [[6, 6, 8, 0], [6, 6, 0, 7], [3, 4, 0, 6]], [[4, 8, 2, 0], [4, 6, 0, 8], [3, 6, 0, 5]], [[10, 8, 0, 9], [9, 8, 0, 5], [9, 8, 0, 4]], [[7, 6, 0, 8], [6, 5, 7, 0], [4, 4, 3, 0]], [[5, 8, 5, 0], [5, 8, 0, 9], [4, 5, 0, 8]], [[6, 8, 7, 0], [5, 7, 7, 0], [5, 7, 0, 1]], [[0, 0, 0, 0]]]
letting resourceLimits = [16, 20, 160, 164]
letting candidateParents = [[], [1, 3, 4, 5, 8, 10, 11, 12, 13, 17, 19], [1, 2, 4, 6, 7, 9, 13, 15, 17, 18, 19, 20], [1, 2, 3, 5, 6, 7, 8, 9, 10, 11, 12, 14, 16, 18], [2, 3, 4, 6, 7, 8, 9, 11, 12, 13, 14, 15, 17, 18, 19, 20, 21, 22, 23, 24, 25, 26, 29], [2, 3, 4, 5, 7, 8, 9, 10, 11, 12, 13, 14, 15, 17, 18, 19, 20, 21, 22, 23, 24, 25, 26, 27, 29, 30], [2, 3, 4, 5, 6, 8, 9, 10, 11, 12, 13, 14, 16, 17, 18, 19, 20, 21, 22, 23, 24, 27, 28], [2, 3, 4, 5, 6, 7, 9, 10, 11, 13, 15, 16, 17, 18, 19, 20], [2, 3, 4, 5, 6, 7, 8, 10, 11, 12, 13, 15, 16, 17, 19], [2, 4, 5, 6, 7, 8, 9, 11, 12, 13, 14, 15, 17, 18, 19, 20, 21, 22, 23, 24, 25, 26, 29, 30], [2, 3, 4, 5, 6, 7, 8, 9, 10, 12, 13, 14, 15, 17, 18, 19, 20, 21, 22, 24, 25, 26, 29, 30], [2, 4, 5, 6, 7, 8, 9, 10, 11, 13, 14, 15, 16, 17, 18, 19, 20, 21, 23, 27, 29], [2, 3, 4, 5, 6, 7, 8, 9, 10, 11, 12, 14, 16, 18, 22], [4, 5, 6, 7, 8, 9, 10, 11, 12, 13, 15, 16, 17, 18, 19, 20, 21, 22, 24, 25, 26, 30], [3, 5, 6, 7, 8, 9, 10, 11, 12, 13, 14, 16, 17, 18, 19, 20, 21, 22, 23, 24, 26, 27, 28], [4, 6, 7, 8, 9, 10, 11, 12, 13, 14, 15, 17, 18, 19, 20, 21, 22, 23, 24, 25, 26, 27, 29, 30], [2, 3, 5, 6, 7, 8, 9, 10, 11, 12, 13, 14, 15, 16, 18, 19, 20, 22, 24, 25], [3, 4, 5, 6, 7, 8, 9, 10, 11, 12, 13, 14, 15, 16, 17, 19, 20, 21, 23, 27, 28, 29], [2, 3, 5, 6, 7, 8, 9, 10, 11, 12, 13, 14, 15, 16, 17, 18, 22], [3, 5, 6, 7, 8, 9, 10, 11, 12, 14, 15, 16, 17, 18, 19, 22], [5, 6, 7, 8, 10, 11, 12, 14, 15, 16, 17, 18, 20, 22, 24, 25, 26, 30], [4, 5, 6, 7, 10, 11, 12, 13, 14, 15, 16, 17, 18, 19, 20, 21, 23, 27, 28, 29], [5, 6, 7, 10, 11, 12, 14, 15, 16, 18, 21, 22, 24, 25, 26, 29, 30], [5, 6, 7, 10, 11, 14, 15, 16, 17, 20, 21, 22, 23, 25, 27, 28, 29], [5, 6, 10, 11, 14, 15, 16, 17, 20, 21, 22, 23, 24, 26, 27, 28, 29, 31], [5, 6, 7, 10, 11, 14, 15, 16, 17, 21, 23, 24, 25, 27, 28, 29, 31], [6, 7, 10, 12, 15, 16, 18, 22, 23, 24, 25, 26, 29, 30], [7, 12, 15, 16, 18, 22, 24, 25, 26, 27, 29, 30], [5, 6, 10, 11, 12, 14, 15, 16, 18, 21, 22, 23, 24, 25, 26, 27, 28, 30, 31], [5, 6, 10, 11, 14, 16, 21, 23, 25, 26, 27, 28, 29, 31], [15, 24, 25, 26, 28, 29, 30], [29, 30, 31]]
